\ Exact one-hot deterministic governed stochastic program
Minimize
 obj: 200 z_0 + 186 z_1 + 206 z_2 + 186 z_3 + 206 z_4 + 126 z_5 + 132 z_6 + 132 z_7 + 112 z_8 + 132 z_9 + 206 z_10 + 192 z_11 + 212 z_12 + 192 z_13 + 212 z_14 + 126 z_15 + 112 z_16 + 132 z_17 + 132 z_18 + 132 z_19 + 206 z_20 + 192 z_21 + 212 z_22 + 192 z_23 + 212 z_24 + 106 z_25 + 112 z_26 + 112 z_27 + 92 z_28 + 112 z_29 + 112 z_30 + 118 z_31 + 118 z_32 + 98 z_33 + 118 z_34 + 112 z_35 + 118 z_36 + 118 z_37 + 98 z_38 + 118 z_39 + 32 z_40 + 38 z_41 + 38 z_42 + 38 z_43 + 38 z_44 + 112 z_45 + 118 z_46 + 118 z_47 + 98 z_48 + 118 z_49 + 206 z_50 + 192 z_51 + 212 z_52 + 192 z_53 + 212 z_54 + 132 z_55 + 138 z_56 + 138 z_57 + 118 z_58 + 138 z_59 + 212 z_60 + 198 z_61 + 218 z_62 + 198 z_63 + 218 z_64 + 132 z_65 + 118 z_66 + 138 z_67 + 138 z_68 + 138 z_69 + 212 z_70 + 198 z_71 + 218 z_72 + 198 z_73 + 218 z_74 + 106 z_75 + 92 z_76 + 112 z_77 + 112 z_78 + 112 z_79 + 32 z_80 + 38 z_81 + 38 z_82 + 38 z_83 + 38 z_84 + 112 z_85 + 98 z_86 + 118 z_87 + 118 z_88 + 118 z_89 + 112 z_90 + 98 z_91 + 118 z_92 + 118 z_93 + 118 z_94 + 112 z_95 + 98 z_96 + 118 z_97 + 118 z_98 + 118 z_99 + 206 z_100 + 192 z_101 + 212 z_102 + 192 z_103 + 212 z_104 + 132 z_105 + 138 z_106 + 138 z_107 + 118 z_108 + 138 z_109 + 212 z_110 + 198 z_111 + 218 z_112 + 198 z_113 + 218 z_114 + 132 z_115 + 118 z_116 + 138 z_117 + 138 z_118 + 138 z_119 + 212 z_120 + 198 z_121 + 218 z_122 + 198 z_123 + 218 z_124
Subject To
 one_sequence: z_0 + z_1 + z_2 + z_3 + z_4 + z_5 + z_6 + z_7 + z_8 + z_9 + z_10 + z_11 + z_12 + z_13 + z_14 + z_15 + z_16 + z_17 + z_18 + z_19 + z_20 + z_21 + z_22 + z_23 + z_24 + z_25 + z_26 + z_27 + z_28 + z_29 + z_30 + z_31 + z_32 + z_33 + z_34 + z_35 + z_36 + z_37 + z_38 + z_39 + z_40 + z_41 + z_42 + z_43 + z_44 + z_45 + z_46 + z_47 + z_48 + z_49 + z_50 + z_51 + z_52 + z_53 + z_54 + z_55 + z_56 + z_57 + z_58 + z_59 + z_60 + z_61 + z_62 + z_63 + z_64 + z_65 + z_66 + z_67 + z_68 + z_69 + z_70 + z_71 + z_72 + z_73 + z_74 + z_75 + z_76 + z_77 + z_78 + z_79 + z_80 + z_81 + z_82 + z_83 + z_84 + z_85 + z_86 + z_87 + z_88 + z_89 + z_90 + z_91 + z_92 + z_93 + z_94 + z_95 + z_96 + z_97 + z_98 + z_99 + z_100 + z_101 + z_102 + z_103 + z_104 + z_105 + z_106 + z_107 + z_108 + z_109 + z_110 + z_111 + z_112 + z_113 + z_114 + z_115 + z_116 + z_117 + z_118 + z_119 + z_120 + z_121 + z_122 + z_123 + z_124 = 1
 budget_prob_catastrophic: 1 z_0 + 1 z_1 + 1 z_2 + 1 z_3 + 1 z_4 + 0.5 z_5 + 0.5 z_6 + 0.5 z_7 + 0.5 z_8 + 0.5 z_9 + 1 z_10 + 1 z_11 + 1 z_12 + 1 z_13 + 1 z_14 + 0.5 z_15 + 0.5 z_16 + 0.5 z_17 + 0.5 z_18 + 0.5 z_19 + 1 z_20 + 1 z_21 + 1 z_22 + 1 z_23 + 1 z_24 + 0.5 z_25 + 0.5 z_26 + 0.5 z_27 + 0.5 z_28 + 0.5 z_29 + 0.5 z_30 + 0.5 z_31 + 0.5 z_32 + 0.5 z_33 + 0.5 z_34 + 0.5 z_35 + 0.5 z_36 + 0.5 z_37 + 0.5 z_38 + 0.5 z_39 + 0 z_40 + 0 z_41 + 0 z_42 + 0 z_43 + 0 z_44 + 0.5 z_45 + 0.5 z_46 + 0.5 z_47 + 0.5 z_48 + 0.5 z_49 + 1 z_50 + 1 z_51 + 1 z_52 + 1 z_53 + 1 z_54 + 0.5 z_55 + 0.5 z_56 + 0.5 z_57 + 0.5 z_58 + 0.5 z_59 + 1 z_60 + 1 z_61 + 1 z_62 + 1 z_63 + 1 z_64 + 0.5 z_65 + 0.5 z_66 + 0.5 z_67 + 0.5 z_68 + 0.5 z_69 + 1 z_70 + 1 z_71 + 1 z_72 + 1 z_73 + 1 z_74 + 0.5 z_75 + 0.5 z_76 + 0.5 z_77 + 0.5 z_78 + 0.5 z_79 + 0 z_80 + 0 z_81 + 0 z_82 + 0 z_83 + 0 z_84 + 0.5 z_85 + 0.5 z_86 + 0.5 z_87 + 0.5 z_88 + 0.5 z_89 + 0.5 z_90 + 0.5 z_91 + 0.5 z_92 + 0.5 z_93 + 0.5 z_94 + 0.5 z_95 + 0.5 z_96 + 0.5 z_97 + 0.5 z_98 + 0.5 z_99 + 1 z_100 + 1 z_101 + 1 z_102 + 1 z_103 + 1 z_104 + 0.5 z_105 + 0.5 z_106 + 0.5 z_107 + 0.5 z_108 + 0.5 z_109 + 1 z_110 + 1 z_111 + 1 z_112 + 1 z_113 + 1 z_114 + 0.5 z_115 + 0.5 z_116 + 0.5 z_117 + 0.5 z_118 + 0.5 z_119 + 1 z_120 + 1 z_121 + 1 z_122 + 1 z_123 + 1 z_124 <= 0
 budget_prob_degraded: 1 z_0 + 1 z_1 + 1 z_2 + 1 z_3 + 1 z_4 + 1 z_5 + 1 z_6 + 1 z_7 + 1 z_8 + 1 z_9 + 1 z_10 + 1 z_11 + 1 z_12 + 1 z_13 + 1 z_14 + 1 z_15 + 1 z_16 + 1 z_17 + 1 z_18 + 1 z_19 + 1 z_20 + 1 z_21 + 1 z_22 + 1 z_23 + 1 z_24 + 0.5 z_25 + 0.5 z_26 + 0.5 z_27 + 0.5 z_28 + 0.5 z_29 + 0.5 z_30 + 0.5 z_31 + 0.5 z_32 + 0.5 z_33 + 0.5 z_34 + 0.5 z_35 + 0.5 z_36 + 0.5 z_37 + 0.5 z_38 + 0.5 z_39 + 0.5 z_40 + 0.5 z_41 + 0.5 z_42 + 0.5 z_43 + 0.5 z_44 + 0.5 z_45 + 0.5 z_46 + 0.5 z_47 + 0.5 z_48 + 0.5 z_49 + 1 z_50 + 1 z_51 + 1 z_52 + 1 z_53 + 1 z_54 + 1 z_55 + 1 z_56 + 1 z_57 + 1 z_58 + 1 z_59 + 1 z_60 + 1 z_61 + 1 z_62 + 1 z_63 + 1 z_64 + 1 z_65 + 1 z_66 + 1 z_67 + 1 z_68 + 1 z_69 + 1 z_70 + 1 z_71 + 1 z_72 + 1 z_73 + 1 z_74 + 0.5 z_75 + 0.5 z_76 + 0.5 z_77 + 0.5 z_78 + 0.5 z_79 + 0.5 z_80 + 0.5 z_81 + 0.5 z_82 + 0.5 z_83 + 0.5 z_84 + 0.5 z_85 + 0.5 z_86 + 0.5 z_87 + 0.5 z_88 + 0.5 z_89 + 0.5 z_90 + 0.5 z_91 + 0.5 z_92 + 0.5 z_93 + 0.5 z_94 + 0.5 z_95 + 0.5 z_96 + 0.5 z_97 + 0.5 z_98 + 0.5 z_99 + 1 z_100 + 1 z_101 + 1 z_102 + 1 z_103 + 1 z_104 + 1 z_105 + 1 z_106 + 1 z_107 + 1 z_108 + 1 z_109 + 1 z_110 + 1 z_111 + 1 z_112 + 1 z_113 + 1 z_114 + 1 z_115 + 1 z_116 + 1 z_117 + 1 z_118 + 1 z_119 + 1 z_120 + 1 z_121 + 1 z_122 + 1 z_123 + 1 z_124 <= 0
 budget_prob_shortage: 1 z_0 + 1 z_1 + 1 z_2 + 1 z_3 + 1 z_4 + 0.5 z_5 + 0.5 z_6 + 0.5 z_7 + 0.5 z_8 + 0.5 z_9 + 1 z_10 + 1 z_11 + 1 z_12 + 1 z_13 + 1 z_14 + 0.5 z_15 + 0.5 z_16 + 0.5 z_17 + 0.5 z_18 + 0.5 z_19 + 1 z_20 + 1 z_21 + 1 z_22 + 1 z_23 + 1 z_24 + 0.5 z_25 + 0.5 z_26 + 0.5 z_27 + 0.5 z_28 + 0.5 z_29 + 0.5 z_30 + 0.5 z_31 + 0.5 z_32 + 0.5 z_33 + 0.5 z_34 + 0.5 z_35 + 0.5 z_36 + 0.5 z_37 + 0.5 z_38 + 0.5 z_39 + 0 z_40 + 0 z_41 + 0 z_42 + 0 z_43 + 0 z_44 + 0.5 z_45 + 0.5 z_46 + 0.5 z_47 + 0.5 z_48 + 0.5 z_49 + 1 z_50 + 1 z_51 + 1 z_52 + 1 z_53 + 1 z_54 + 0.5 z_55 + 0.5 z_56 + 0.5 z_57 + 0.5 z_58 + 0.5 z_59 + 1 z_60 + 1 z_61 + 1 z_62 + 1 z_63 + 1 z_64 + 0.5 z_65 + 0.5 z_66 + 0.5 z_67 + 0.5 z_68 + 0.5 z_69 + 1 z_70 + 1 z_71 + 1 z_72 + 1 z_73 + 1 z_74 + 0.5 z_75 + 0.5 z_76 + 0.5 z_77 + 0.5 z_78 + 0.5 z_79 + 0 z_80 + 0 z_81 + 0 z_82 + 0 z_83 + 0 z_84 + 0.5 z_85 + 0.5 z_86 + 0.5 z_87 + 0.5 z_88 + 0.5 z_89 + 0.5 z_90 + 0.5 z_91 + 0.5 z_92 + 0.5 z_93 + 0.5 z_94 + 0.5 z_95 + 0.5 z_96 + 0.5 z_97 + 0.5 z_98 + 0.5 z_99 + 1 z_100 + 1 z_101 + 1 z_102 + 1 z_103 + 1 z_104 + 0.5 z_105 + 0.5 z_106 + 0.5 z_107 + 0.5 z_108 + 0.5 z_109 + 1 z_110 + 1 z_111 + 1 z_112 + 1 z_113 + 1 z_114 + 0.5 z_115 + 0.5 z_116 + 0.5 z_117 + 0.5 z_118 + 0.5 z_119 + 1 z_120 + 1 z_121 + 1 z_122 + 1 z_123 + 1 z_124 <= 0
Binary
 z_0
 z_1
 z_2
 z_3
 z_4
 z_5
 z_6
 z_7
 z_8
 z_9
 z_10
 z_11
 z_12
 z_13
 z_14
 z_15
 z_16
 z_17
 z_18
 z_19
 z_20
 z_21
 z_22
 z_23
 z_24
 z_25
 z_26
 z_27
 z_28
 z_29
 z_30
 z_31
 z_32
 z_33
 z_34
 z_35
 z_36
 z_37
 z_38
 z_39
 z_40
 z_41
 z_42
 z_43
 z_44
 z_45
 z_46
 z_47
 z_48
 z_49
 z_50
 z_51
 z_52
 z_53
 z_54
 z_55
 z_56
 z_57
 z_58
 z_59
 z_60
 z_61
 z_62
 z_63
 z_64
 z_65
 z_66
 z_67
 z_68
 z_69
 z_70
 z_71
 z_72
 z_73
 z_74
 z_75
 z_76
 z_77
 z_78
 z_79
 z_80
 z_81
 z_82
 z_83
 z_84
 z_85
 z_86
 z_87
 z_88
 z_89
 z_90
 z_91
 z_92
 z_93
 z_94
 z_95
 z_96
 z_97
 z_98
 z_99
 z_100
 z_101
 z_102
 z_103
 z_104
 z_105
 z_106
 z_107
 z_108
 z_109
 z_110
 z_111
 z_112
 z_113
 z_114
 z_115
 z_116
 z_117
 z_118
 z_119
 z_120
 z_121
 z_122
 z_123
 z_124
End
